(set-info :smt-lib-version 2.6)
(set-logic UF)
(set-info :source |Benchmarks from the paper: "Extending Sledgehammer with SMT Solvers" by Jasmin Blanchette, Sascha Bohme, and Lawrence C. Paulson, CADE 2011.  Translated to SMT2 by Andrew Reynolds and Morgan Deters.|)
(set-info :category "industrial")
(set-info :status sat)
(declare-sort S1 0)
(declare-sort S2 0)
(declare-sort S3 0)
(declare-sort S4 0)
(declare-sort S5 0)
(declare-sort S6 0)
(declare-sort S7 0)
(declare-sort S8 0)
(declare-sort S9 0)
(declare-sort S10 0)
(declare-sort S11 0)
(declare-sort S12 0)
(declare-sort S13 0)
(declare-sort S14 0)
(declare-sort S15 0)
(declare-sort S16 0)
(declare-sort S17 0)
(declare-sort S18 0)
(declare-sort S19 0)
(declare-sort S20 0)
(declare-sort S21 0)
(declare-sort S22 0)
(declare-sort S23 0)
(declare-sort S24 0)
(declare-sort S25 0)
(declare-fun f1 () S1)
(declare-fun f2 () S1)
(declare-fun f3 (S3 S2) S1)
(declare-fun f4 () S3)
(declare-fun f5 (S2 S3) S1)
(declare-fun f6 (S4) S3)
(declare-fun f7 () S4)
(declare-fun f8 (S5 S6 S6) S3)
(declare-fun f9 () S5)
(declare-fun f10 () S6)
(declare-fun f11 () S3)
(declare-fun f12 () S5)
(declare-fun f13 () S6)
(declare-fun f14 (S5 S7) S8)
(declare-fun f15 (S1 S5) S8)
(declare-fun f16 () S5)
(declare-fun f17 (S9 S7) S1)
(declare-fun f18 () S9)
(declare-fun f19 (S11 S7) S7)
(declare-fun f20 (S12 S7) S11)
(declare-fun f21 () S12)
(declare-fun f22 (S13 S10) S7)
(declare-fun f23 (S14 S10) S13)
(declare-fun f24 () S14)
(declare-fun f25 (S15 S10) S10)
(declare-fun f26 () S15)
(declare-fun f27 () S10)
(declare-fun f28 (S16 S10) S2)
(declare-fun f29 (S17 S7) S16)
(declare-fun f30 () S17)
(declare-fun f31 (S3) S3)
(declare-fun f32 (S8 S10) S1)
(declare-fun f33 (S7 S7) S1)
(declare-fun f34 () S7)
(declare-fun f35 (S6 S7) S5)
(declare-fun f36 (S18 S2) S8)
(declare-fun f37 () S18)
(declare-fun f38 (S19 S7) S15)
(declare-fun f39 () S19)
(declare-fun f40 () S7)
(declare-fun f41 () S12)
(declare-fun f42 () S12)
(declare-fun f43 () S12)
(declare-fun f44 (S20 S9) S7)
(declare-fun f45 () S20)
(declare-fun f46 (S9) S9)
(declare-fun f47 () S13)
(declare-fun f48 (S21 S4) S10)
(declare-fun f49 (S22 S23) S21)
(declare-fun f50 () S22)
(declare-fun f51 () S23)
(declare-fun f52 (S3 S4) S4)
(declare-fun f53 () S7)
(declare-fun f54 (S3 S3) S3)
(declare-fun f55 (S23 S2) S7)
(declare-fun f56 (S18 S24 S10) S1)
(declare-fun f57 (S4) S24)
(declare-fun f58 (S25 S10) S15)
(declare-fun f59 () S25)
(assert (not (= f1 f2)))
(assert (forall ((?v0 S2)) (= (= (f3 f4 ?v0) f1) (and (= (f5 ?v0 (f6 f7)) f1) (= (f3 (f8 f9 f10 f10) ?v0) f1)))))
(assert (forall ((?v0 S2)) (= (= (f3 f11 ?v0) f1) (and (= (f5 ?v0 (f6 f7)) f1) (= (f3 (f8 f12 f13 f13) ?v0) f1)))))
(assert (forall ((?v0 S7)) (= (f14 f12 ?v0) (f15 f2 f16))))
(assert (forall ((?v0 S7)) (= (= (f17 f18 ?v0) f1) (exists ((?v1 S10) (?v2 S7)) (and (= ?v0 (f19 (f20 f21 (f22 (f23 f24 (f25 f26 ?v1)) f27)) ?v2)) (= (f5 (f28 (f29 f30 ?v2) ?v1) (f31 f11)) f1))))))
(assert (forall ((?v0 S7) (?v1 S10)) (= (= (f32 (f14 f16 ?v0) ?v1) f1) (= (f33 ?v0 f34) f1))))
(assert (forall ((?v0 S7) (?v1 S7) (?v2 S10)) (= (= (f32 (f14 (f35 f13 ?v0) ?v1) ?v2) f1) false)))
(assert (forall ((?v0 S7) (?v1 S7) (?v2 S10)) (= (= (f32 (f14 (f35 f10 ?v0) ?v1) ?v2) f1) true)))
(assert (forall ((?v0 S7) (?v1 S10)) (= (= (f32 (f14 f9 ?v0) ?v1) f1) false)))
(assert (not (forall ((?v0 S2)) (let ((?v_0 (f20 f21 f40)) (?v_1 (f22 f47 (f48 (f49 f50 f51) (f52 (f8 f9 f10 f10) f7))))) (=> (= (f5 ?v0 (f6 f7)) f1) (= (f32 (f36 f37 ?v0) (f25 (f38 f39 (f19 ?v_0 (f19 (f20 f41 (f19 (f20 f42 (f19 (f20 f43 (f19 ?v_0 (f44 f45 (f46 f18)))) ?v_1)) f53)) ?v_1))) f27)) f1))))))
(assert (forall ((?v0 S2)) (let ((?v_0 (f20 f21 f40)) (?v_1 (f22 f47 (f48 (f49 f50 f51) (f52 (f8 f9 f10 f10) f7))))) (=> (= (f5 ?v0 (f31 f4)) f1) (= (f32 (f36 f37 ?v0) (f25 (f38 f39 (f19 ?v_0 (f19 (f20 f41 (f19 (f20 f42 (f19 (f20 f43 (f19 ?v_0 (f44 f45 (f46 f18)))) ?v_1)) f53)) ?v_1))) f27)) f1)))))
(assert (forall ((?v0 S2)) (let ((?v_0 (f20 f21 f40)) (?v_1 (f22 f47 (f48 (f49 f50 f51) (f52 (f8 f9 f10 f10) f7))))) (=> (= (f5 ?v0 (f31 f11)) f1) (= (f32 (f36 f37 ?v0) (f25 (f38 f39 (f19 ?v_0 (f19 (f20 f41 (f19 (f20 f42 (f19 (f20 f43 (f19 ?v_0 (f44 f45 (f46 f18)))) ?v_1)) f53)) ?v_1))) f27)) f1)))))
(assert (= (f6 f7) (f54 (f31 f4) (f31 f11))))
(assert (forall ((?v0 S2)) (=> (= (f5 ?v0 (f6 f7)) f1) (not (= (f55 f51 ?v0) f34)))))
(assert (= (f56 f37 (f57 f7) f27) f1))
(assert (forall ((?v0 S7) (?v1 S10) (?v2 S7) (?v3 S10)) (= (f22 (f23 f24 (f25 (f38 f39 ?v0) ?v1)) (f25 (f38 f39 ?v2) ?v3)) (f19 (f20 f42 (f19 (f20 f41 ?v0) ?v2)) (f22 (f23 f24 ?v1) ?v3)))))
(assert (forall ((?v0 S7) (?v1 S7) (?v2 S7)) (let ((?v_0 (f20 f43 ?v1))) (=> (= (f33 f34 ?v0) f1) (= (f19 ?v_0 (f19 (f20 f41 ?v2) ?v0)) (f19 (f20 f43 (f19 ?v_0 ?v2)) ?v0))))))
(assert (forall ((?v0 S7) (?v1 S7)) (=> (= (f33 f34 ?v0) f1) (=> (= (f33 f53 ?v1) f1) (= (f33 (f19 (f20 f43 ?v0) ?v1) ?v0) f1)))))
(assert (forall ((?v0 S7) (?v1 S7)) (=> (= (f33 f34 ?v0) f1) (= (= (f19 (f20 f41 ?v0) ?v1) f53) (and (= ?v0 f53) (= ?v1 f53))))))
(assert (forall ((?v0 S7)) (= (= (f33 (f19 (f20 f42 (f19 (f20 f42 f53) ?v0)) ?v0) f34) f1) (= (f33 ?v0 f34) f1))))
(assert (forall ((?v0 S7) (?v1 S7)) (=> (not (= ?v0 f34)) (= (f19 (f20 f43 (f19 (f20 f42 ?v1) ?v0)) ?v0) (f19 (f20 f42 (f19 (f20 f43 ?v1) ?v0)) f53)))))
(assert (forall ((?v0 S7) (?v1 S7)) (=> (not (= ?v0 f34)) (= (f19 (f20 f43 (f19 (f20 f42 ?v0) ?v1)) ?v0) (f19 (f20 f42 (f19 (f20 f43 ?v1) ?v0)) f53)))))
(assert (forall ((?v0 S7) (?v1 S7) (?v2 S7)) (=> (not (= ?v0 f34)) (= (f19 (f20 f43 (f19 (f20 f42 ?v1) (f19 (f20 f41 ?v0) ?v2))) ?v0) (f19 (f20 f42 ?v2) (f19 (f20 f43 ?v1) ?v0))))))
(assert (forall ((?v0 S7) (?v1 S7) (?v2 S7)) (=> (not (= ?v0 f34)) (= (f19 (f20 f43 (f19 (f20 f42 ?v1) (f19 (f20 f41 ?v2) ?v0))) ?v0) (f19 (f20 f42 ?v2) (f19 (f20 f43 ?v1) ?v0))))))
(assert (forall ((?v0 S7) (?v1 S7) (?v2 S7) (?v3 S7) (?v4 S7)) (= (= (f33 (f19 (f20 f42 (f19 (f20 f41 ?v0) ?v1)) ?v2) (f19 (f20 f42 (f19 (f20 f41 ?v3) ?v1)) ?v4)) f1) (= (f33 ?v2 (f19 (f20 f42 (f19 (f20 f41 (f19 (f20 f21 ?v3) ?v0)) ?v1)) ?v4)) f1))))
(assert (forall ((?v0 S7) (?v1 S7) (?v2 S7) (?v3 S7) (?v4 S7)) (= (= (f33 (f19 (f20 f42 (f19 (f20 f41 ?v0) ?v1)) ?v2) (f19 (f20 f42 (f19 (f20 f41 ?v3) ?v1)) ?v4)) f1) (= (f33 (f19 (f20 f42 (f19 (f20 f41 (f19 (f20 f21 ?v0) ?v3)) ?v1)) ?v2) ?v4) f1))))
(assert (forall ((?v0 S7) (?v1 S7)) (=> (not (= ?v0 ?v1)) (=> (=> (= (f33 ?v0 ?v1) f1) false) (=> (=> (= (f33 ?v1 ?v0) f1) false) false)))))
(assert (forall ((?v0 S7) (?v1 S7)) (or (= (f33 ?v0 ?v1) f1) (or (= ?v0 ?v1) (= (f33 ?v1 ?v0) f1)))))
(assert (forall ((?v0 S7) (?v1 S7) (?v2 S7)) (let ((?v_0 (f20 f42 ?v0))) (= (f19 (f20 f42 (f19 ?v_0 ?v1)) ?v2) (f19 ?v_0 (f19 (f20 f42 ?v1) ?v2))))))
(assert (forall ((?v0 S7) (?v1 S7) (?v2 S7)) (let ((?v_1 (f20 f42 ?v0)) (?v_0 (f20 f42 ?v1))) (= (f19 ?v_1 (f19 ?v_0 ?v2)) (f19 ?v_0 (f19 ?v_1 ?v2))))))
(assert (forall ((?v0 S7) (?v1 S7)) (= (f19 (f20 f42 ?v0) ?v1) (f19 (f20 f42 ?v1) ?v0))))
(assert (forall ((?v0 S7) (?v1 S7) (?v2 S7)) (let ((?v_0 (f20 f41 ?v0))) (= (f19 (f20 f41 (f19 ?v_0 ?v1)) ?v2) (f19 ?v_0 (f19 (f20 f41 ?v1) ?v2))))))
(assert (forall ((?v0 S7) (?v1 S7)) (= (f19 (f20 f41 ?v0) ?v1) (f19 (f20 f41 ?v1) ?v0))))
(assert (forall ((?v0 S7) (?v1 S7)) (=> (= (f19 (f20 f41 ?v0) ?v1) f34) (or (= ?v0 f34) (= ?v1 f34)))))
(assert (forall ((?v0 S7) (?v1 S7)) (=> (not (= ?v0 f34)) (=> (not (= ?v1 f34)) (not (= (f19 (f20 f41 ?v0) ?v1) f34))))))
(assert (forall ((?v0 S7) (?v1 S7)) (= (= (f19 (f20 f41 ?v0) ?v1) f34) (or (= ?v0 f34) (= ?v1 f34)))))
(assert (forall ((?v0 S7)) (= (f19 (f20 f41 ?v0) f34) f34)))
(assert (forall ((?v0 S7)) (= (f19 (f20 f41 f34) ?v0) f34)))
(assert (forall ((?v0 S7)) (= (= (f19 (f20 f42 ?v0) ?v0) f34) (= ?v0 f34))))
(assert (not (= f34 f53)))
(assert (not (= f53 f34)))
(assert (forall ((?v0 S7) (?v1 S7) (?v2 S7) (?v3 S7)) (= (f19 (f20 f42 (f19 (f20 f41 ?v0) ?v1)) (f19 (f20 f42 (f19 (f20 f41 ?v2) ?v1)) ?v3)) (f19 (f20 f42 (f19 (f20 f41 (f19 (f20 f42 ?v0) ?v2)) ?v1)) ?v3))))
(assert (forall ((?v0 S7) (?v1 S7) (?v2 S7)) (= (f19 (f20 f41 (f19 (f20 f42 ?v0) ?v1)) ?v2) (f19 (f20 f42 (f19 (f20 f41 ?v0) ?v2)) (f19 (f20 f41 ?v1) ?v2)))))
(assert (forall ((?v0 S7) (?v1 S10) (?v2 S7) (?v3 S10)) (= (f25 (f58 f59 (f25 (f38 f39 ?v0) ?v1)) (f25 (f38 f39 ?v2) ?v3)) (f25 (f38 f39 (f19 (f20 f42 ?v0) ?v2)) (f25 (f58 f59 ?v1) ?v3)))))
(assert (forall ((?v0 S7)) (= (f19 (f20 f43 ?v0) f34) f34)))
(check-sat)
(exit)
